Li27 Ni27 O54
1.0
   0.0000000000000005    8.7160368496147385    0.0000000000000000
 -18.5059415254051842   -0.0000000000000000   -0.0000000000000000
   0.0000000000000000    0.0000000000000000   26.7830659420495003
Li Ni O
27 27 54
direct
   0.8333330985900398    0.2222223333333333    0.0000000844198621 Li
   0.4999999999999999    0.0000000000000000    0.0000000000000000 Li
   0.2652569411830479    0.1111110000000000    0.0844197777142783 Li
   0.9319231383631273    0.2222223333333333    0.0844199465540026 Li
   0.5985900397730876    0.0000000000000000    0.0844198621341404 Li
   0.3638469809561354    0.1111110000000001    0.1688396398484188 Li
   0.0305131781362151    0.2222223333333334    0.1688398086881431 Li
   0.6971800795461752    0.0000000000000001    0.1688397242682809 Li
   0.4624370207292232    0.1111110000000001    0.2532595019825593 Li
   0.8333330985900398    0.5555556666666666    0.0000000844198621 Li
   0.4999999999999999    0.3333333333333333    0.0000000000000000 Li
   0.2652569411830479    0.4444443333333333    0.0844197777142783 Li
   0.9319231383631273    0.5555556666666666    0.0844199465540026 Li
   0.5985900397730876    0.3333333333333334    0.0844198621341404 Li
   0.3638469809561354    0.4444443333333333    0.1688396398484188 Li
   0.0305131781362151    0.5555556666666667    0.1688398086881431 Li
   0.6971800795461752    0.3333333333333334    0.1688397242682809 Li
   0.4624370207292232    0.4444443333333333    0.2532595019825593 Li
   0.8333330985900398    0.8888889999999998    0.0000000844198621 Li
   0.4999999999999999    0.6666666666666666    0.0000000000000000 Li
   0.2652569411830479    0.7777776666666666    0.0844197777142783 Li
   0.9319231383631273    0.8888889999999998    0.0844199465540026 Li
   0.5985900397730876    0.6666666666666666    0.0844198621341404 Li
   0.3638469809561354    0.7777776666666666    0.1688396398484188 Li
   0.0305131781362151    0.8888889999999998    0.1688398086881431 Li
   0.6971800795461752    0.6666666666666667    0.1688397242682809 Li
   0.4624370207292232    0.7777776666666666    0.2532595019825593 Li
   0.0000000000000000    0.0000000000000000    0.0000000000000000 Ni
   0.7652569411830478    0.1111110000000000    0.0844197777142783 Ni
   0.3333330985900398    0.2222223333333333    0.0000000844198621 Ni
   0.0985900397730876    0.0000000000000000    0.0844198621341404 Ni
   0.8638469809561355    0.1111110000000001    0.1688396398484188 Ni
   0.4319231383631273    0.2222223333333334    0.0844199465540026 Ni
   0.1971800795461752    0.0000000000000001    0.1688397242682809 Ni
   0.9624370207292231    0.1111110000000001    0.2532595019825593 Ni
   0.5305131781362150    0.2222223333333334    0.1688398086881431 Ni
   0.0000000000000000    0.3333333333333333    0.0000000000000000 Ni
   0.7652569411830478    0.4444443333333333    0.0844197777142783 Ni
   0.3333330985900398    0.5555556666666666    0.0000000844198621 Ni
   0.0985900397730876    0.3333333333333334    0.0844198621341404 Ni
   0.8638469809561355    0.4444443333333333    0.1688396398484188 Ni
   0.4319231383631273    0.5555556666666666    0.0844199465540026 Ni
   0.1971800795461752    0.3333333333333334    0.1688397242682809 Ni
   0.9624370207292231    0.4444443333333333    0.2532595019825593 Ni
   0.5305131781362150    0.5555556666666667    0.1688398086881431 Ni
   0.0000000000000000    0.6666666666666666    0.0000000000000000 Ni
   0.7652569411830478    0.7777776666666666    0.0844197777142783 Ni
   0.3333330985900398    0.8888889999999998    0.0000000844198621 Ni
   0.0985900397730876    0.6666666666666666    0.0844198621341404 Ni
   0.8638469809561355    0.7777776666666666    0.1688396398484188 Ni
   0.4319231383631273    0.8888889999999998    0.0844199465540026 Ni
   0.1971800795461752    0.6666666666666667    0.1688397242682809 Ni
   0.9624370207292231    0.7777776666666666    0.2532595019825593 Ni
   0.5305131781362150    0.8888890000000000    0.1688398086881431 Ni
   0.0199542837891278    0.1111110000000000    0.0818007359114287 O
   0.7453026573939202    0.0000000000000000    0.0026190418028496 O
   0.6866210866090481    0.2222223333333334    0.0818005670717045 O
   0.4119689531640396    0.1111110000000000    0.0026192950624360 O
   0.3532873823791674    0.0000000000000000    0.0818008203312909 O
   0.0786357559839601    0.2222223333333333    0.0026191262227117 O
   0.1185443235622152    0.1111110000000001    0.1662205980455692 O
   0.8438926971670079    0.0000000000000000    0.0870389039369900 O
   0.7852111263821355    0.2222223333333334    0.1662204292058450 O
   0.5105589929371273    0.1111110000000000    0.0870391571965764 O
   0.4518774221522550    0.0000000000000001    0.1662206824654314 O
   0.1772257957570477    0.2222223333333334    0.0870389883568521 O
   0.2171343633353029    0.1111110000000001    0.2506404601797096 O
   0.9424827369400954    0.0000000000000001    0.1714587660711305 O
   0.8838011661552232    0.2222223333333334    0.2506402913399854 O
   0.6091490327102148    0.1111110000000001    0.1714590193307168 O
   0.5504674619253426    0.0000000000000001    0.2506405445995719 O
   0.2758158355301354    0.2222223333333334    0.1714588504909926 O
   0.0199542837891278    0.4444443333333333    0.0818007359114287 O
   0.7453026573939202    0.3333333333333333    0.0026190418028496 O
   0.6866210866090481    0.5555556666666666    0.0818005670717045 O
   0.4119689531640396    0.4444443333333333    0.0026192950624360 O
   0.3532873823791674    0.3333333333333334    0.0818008203312909 O
   0.0786357559839601    0.5555556666666666    0.0026191262227117 O
   0.1185443235622152    0.4444443333333333    0.1662205980455692 O
   0.8438926971670079    0.3333333333333334    0.0870389039369900 O
   0.7852111263821355    0.5555556666666667    0.1662204292058450 O
   0.5105589929371273    0.4444443333333333    0.0870391571965764 O
   0.4518774221522550    0.3333333333333334    0.1662206824654314 O
   0.1772257957570477    0.5555556666666666    0.0870389883568521 O
   0.2171343633353029    0.4444443333333333    0.2506404601797096 O
   0.9424827369400954    0.3333333333333334    0.1714587660711305 O
   0.8838011661552232    0.5555556666666667    0.2506402913399854 O
   0.6091490327102148    0.4444443333333333    0.1714590193307168 O
   0.5504674619253426    0.3333333333333334    0.2506405445995719 O
   0.2758158355301354    0.5555556666666667    0.1714588504909926 O
   0.0199542837891278    0.7777776666666666    0.0818007359114287 O
   0.7453026573939202    0.6666666666666666    0.0026190418028496 O
   0.6866210866090481    0.8888889999999998    0.0818005670717045 O
   0.4119689531640396    0.7777776666666665    0.0026192950624360 O
   0.3532873823791674    0.6666666666666666    0.0818008203312909 O
   0.0786357559839601    0.8888889999999998    0.0026191262227117 O
   0.1185443235622152    0.7777776666666666    0.1662205980455692 O
   0.8438926971670079    0.6666666666666666    0.0870389039369900 O
   0.7852111263821355    0.8888889999999998    0.1662204292058450 O
   0.5105589929371273    0.7777776666666666    0.0870391571965764 O
   0.4518774221522550    0.6666666666666667    0.1662206824654314 O
   0.1772257957570477    0.8888889999999998    0.0870389883568521 O
   0.2171343633353028    0.7777776666666666    0.2506404601797096 O
   0.9424827369400954    0.6666666666666667    0.1714587660711305 O
   0.8838011661552232    0.8888890000000000    0.2506402913399854 O
   0.6091490327102148    0.7777776666666666    0.1714590193307168 O
   0.5504674619253426    0.6666666666666667    0.2506405445995719 O
   0.2758158355301354    0.8888889999999998    0.1714588504909926 O
