Li9 Ni9 O18
1.0
  18.5059415254051842    0.0000000000000000    0.0000000000000000
   0.0000000000000002    2.9053456165382459    0.0000000000000000
   0.0000000000000000    0.0000000000000000   26.7830659420495003
Li Ni O
9 9 18
direct
   0.8333330985900398    0.6666670000000000    0.3733703334285826 Li
   0.5000000000000000    0.0000000000000000    0.3733702490087204 Li
   0.2652569411830479    0.3333330000000001    0.4577900267229987 Li
   0.9319231383631275    0.6666670000000001    0.4577901955627230 Li
   0.5985900397730877    0.0000000000000001    0.4577901111428608 Li
   0.3638469809561355    0.3333330000000002    0.5422098888571392 Li
   0.0305131781362151    0.6666670000000002    0.5422100576968635 Li
   0.6971800795461753    0.0000000000000003    0.5422099732770013 Li
   0.4624370207292231    0.3333330000000003    0.6266297509912797 Li
   0.0000000000000000    0.0000000000000000    0.3733702490087204 Ni
   0.7652569411830479    0.3333330000000000    0.4577900267229987 Ni
   0.3333330985900398    0.6666670000000000    0.3733703334285826 Ni
   0.0985900397730876    0.0000000000000001    0.4577901111428608 Ni
   0.8638469809561355    0.3333330000000002    0.5422098888571392 Ni
   0.4319231383631273    0.6666670000000001    0.4577901955627230 Ni
   0.1971800795461752    0.0000000000000003    0.5422099732770013 Ni
   0.9624370207292231    0.3333330000000003    0.6266297509912797 Ni
   0.5305131781362150    0.6666670000000003    0.5422100576968635 Ni
   0.0199542837891278    0.3333330000000001    0.4551709849201491 O
   0.7453026573939203    0.0000000000000000    0.3759892908115700 O
   0.6866210866090481    0.6666670000000001    0.4551708160804249 O
   0.4119689531640396    0.3333329999999999    0.3759895440711564 O
   0.3532873823791674    0.0000000000000001    0.4551710693400113 O
   0.0786357559839601    0.6666670000000000    0.3759893752314321 O
   0.1185443235622152    0.3333330000000002    0.5395908470542896 O
   0.8438926971670079    0.0000000000000001    0.4604091529457104 O
   0.7852111263821356    0.6666670000000002    0.5395906782145654 O
   0.5105589929371273    0.3333330000000001    0.4604094062052969 O
   0.4518774221522550    0.0000000000000003    0.5395909314741517 O
   0.1772257957570477    0.6666670000000001    0.4604092373655725 O
   0.2171343633353029    0.3333330000000003    0.6240107091884300 O
   0.9424827369400954    0.0000000000000003    0.5448290150798508 O
   0.8838011661552233    0.6666670000000003    0.6240105403487058 O
   0.6091490327102148    0.3333330000000002    0.5448292683394372 O
   0.5504674619253427    0.0000000000000004    0.6240107936082923 O
   0.2758158355301354    0.6666670000000002    0.5448290994997130 O
