Li27 Ni27 O54
1.0
   0.0000000000000014    8.7160368496147385    0.0000000000000005
 -18.5059415254051842   -0.0000000000000000   -0.0000000000000011
   0.0000000000000000    0.0000000000000000   26.1872189047281339
Li Ni O
27 27 54
direct
   0.8333330820298520    0.2222222213532435    0.0000000787562435 Li
   0.4999999999999999    0.0000000000000000    0.0000000000000000 Li
   0.2486967697812081    0.3324643555042156    0.0787561647588963 Li
   0.9153629338409118    0.1102421315440360    0.0787563222713833 Li
   0.5820298518110598    0.2213532435241259    0.0787562435151398 Li
   0.3307266215922681    0.2204842656950082    0.1575124082740361 Li
   0.9973927856519714    0.3315953750681619    0.1575125657865230 Li
   0.6640597036221197    0.1093731537149184    0.1575124870302795 Li
   0.4127564734033280    0.1085041758858007    0.2362686517891759 Li
   0.8333330820298520    0.5555555546865768    0.0000000787562435 Li
   0.4999999999999999    0.3333333333333333    0.0000000000000000 Li
   0.2486967697812081    0.6657976888375489    0.0787561647588963 Li
   0.9153629338409118    0.4435754648773694    0.0787563222713833 Li
   0.5820298518110598    0.5546865768574591    0.0787562435151398 Li
   0.3307266215922681    0.5538175990283415    0.1575124082740361 Li
   0.9973927856519714    0.6649287084014952    0.1575125657865230 Li
   0.6640597036221197    0.4427064870482516    0.1575124870302795 Li
   0.4127564734033279    0.4418375092191341    0.2362686517891758 Li
   0.8333330820298520    0.8888888880199102    0.0000000787562435 Li
   0.5000000000000001    0.6666666666666666    0.0000000000000000 Li
   0.2486967697812081    0.9991310221708822    0.0787561647588963 Li
   0.9153629338409117    0.7769087982107027    0.0787563222713833 Li
   0.5820298518110598    0.8880199101907923    0.0787562435151398 Li
   0.3307266215922681    0.8871509323616749    0.1575124082740361 Li
   0.9973927856519714    0.9982620417348286    0.1575125657865230 Li
   0.6640597036221196    0.7760398203815849    0.1575124870302795 Li
   0.4127564734033279    0.7751708425524673    0.2362686517891758 Li
   0.0000000000000000    0.0000000000000000    0.0000000000000000 Ni
   0.7486967697812081    0.3324643555042156    0.0787561647588963 Ni
   0.3333330820298519    0.2222222213532435    0.0000000787562436 Ni
   0.0820298518110599    0.2213532435241258    0.0787562435151398 Ni
   0.8307266215922681    0.2204842656950081    0.1575124082740361 Ni
   0.4153629338409117    0.1102421315440361    0.0787563222713833 Ni
   0.1640597036221198    0.1093731537149184    0.1575124870302795 Ni
   0.9127564734033280    0.1085041758858006    0.2362686517891758 Ni
   0.4973927856519717    0.3315953750681618    0.1575125657865231 Ni
   0.0000000000000000    0.3333333333333333    0.0000000000000000 Ni
   0.7486967697812081    0.6657976888375490    0.0787561647588963 Ni
   0.3333330820298519    0.5555555546865767    0.0000000787562436 Ni
   0.0820298518110599    0.5546865768574591    0.0787562435151398 Ni
   0.8307266215922681    0.5538175990283416    0.1575124082740360 Ni
   0.4153629338409117    0.4435754648773694    0.0787563222713833 Ni
   0.1640597036221198    0.4427064870482517    0.1575124870302795 Ni
   0.9127564734033280    0.4418375092191339    0.2362686517891758 Ni
   0.4973927856519717    0.6649287084014951    0.1575125657865231 Ni
   0.0000000000000000    0.6666666666666666    0.0000000000000000 Ni
   0.7486967697812081    0.9991310221708823    0.0787561647588963 Ni
   0.3333330820298519    0.8888888880199101    0.0000000787562436 Ni
   0.0820298518110599    0.8880199101907925    0.0787562435151398 Ni
   0.8307266215922681    0.8871509323616750    0.1575124082740361 Ni
   0.4153629338409117    0.7769087982107027    0.0787563222713833 Ni
   0.1640597036221198    0.7760398203815849    0.1575124870302795 Ni
   0.9127564734033279    0.7751708425524672    0.2362686517891758 Ni
   0.4973927856519716    0.9982620417348282    0.1575125657865231 Ni
   0.0039078756586217    0.0026050924771232    0.0763128310600826 O
   0.7447888941225862    0.3298592630270925    0.0024433336988137 O
   0.6705747115989181    0.1137166497706361    0.0763126735475955 O
   0.4114551402121417    0.1076365937534897    0.0024435699675443 O
   0.3372409576884736    0.2248273138303667    0.0763129098163261 O
   0.0781219761524383    0.2187481510470027    0.0024434124550572 O
   0.0859377274696818    0.2239583360012490    0.1550690745752224 O
   0.8268187459336461    0.2178791732178850    0.0811995772139535 O
   0.7526045634099783    0.0017365599614287    0.1550689170627353 O
   0.4934849920232017    0.3289898372776155    0.0811998134826840 O
   0.4192708094995335    0.1128472240211592    0.1550691533314658 O
   0.1601518279634981    0.1067680612377953    0.0811996559701970 O
   0.1679675792807416    0.1119782461920415    0.2338253180903622 O
   0.9088485977447061    0.1058990834086775    0.1599558207290932 O
   0.8346344152210381    0.2230898034855545    0.2338251605778751 O
   0.5755148438342614    0.2170097474684081    0.1599560569978238 O
   0.5013006613105934    0.0008671342119518    0.2338253968466056 O
   0.2421816797745581    0.3281213047619211    0.1599558994853368 O
   0.0039078756586217    0.3359384258104565    0.0763128310600826 O
   0.7447888941225862    0.6631925963604257    0.0024433336988137 O
   0.6705747115989181    0.4470499831039695    0.0763126735475955 O
   0.4114551402121417    0.4409699270868231    0.0024435699675443 O
   0.3372409576884736    0.5581606471637001    0.0763129098163261 O
   0.0781219761524383    0.5520814843803359    0.0024434124550572 O
   0.0859377274696817    0.5572916693345823    0.1550690745752224 O
   0.8268187459336461    0.5512125065512183    0.0811995772139535 O
   0.7526045634099783    0.3350698932947619    0.1550689170627354 O
   0.4934849920232017    0.6623231706109488    0.0811998134826840 O
   0.4192708094995334    0.4461805573544926    0.1550691533314658 O
   0.1601518279634981    0.4401013945711285    0.0811996559701970 O
   0.1679675792807416    0.4453115795253748    0.2338253180903622 O
   0.9088485977447061    0.4392324167420109    0.1599558207290932 O
   0.8346344152210381    0.5564231368188879    0.2338251605778751 O
   0.5755148438342614    0.5503430808017413    0.1599560569978238 O
   0.5013006613105934    0.3342004675452851    0.2338253968466056 O
   0.2421816797745581    0.6614546380952544    0.1599558994853368 O
   0.0039078756586217    0.6692717591437898    0.0763128310600826 O
   0.7447888941225862    0.9965259296937591    0.0024433336988137 O
   0.6705747115989181    0.7803833164373026    0.0763126735475955 O
   0.4114551402121417    0.7743032604201563    0.0024435699675443 O
   0.3372409576884736    0.8914939804970333    0.0763129098163261 O
   0.0781219761524383    0.8854148177136693    0.0024434124550572 O
   0.0859377274696817    0.8906250026679156    0.1550690745752224 O
   0.8268187459336461    0.8845458398845515    0.0811995772139535 O
   0.7526045634099783    0.6684032266280953    0.1550689170627353 O
   0.4934849920232017    0.9956565039442821    0.0811998134826840 O
   0.4192708094995334    0.7795138906878258    0.1550691533314658 O
   0.1601518279634981    0.7734347279044619    0.0811996559701970 O
   0.1679675792807416    0.7786449128587081    0.2338253180903622 O
   0.9088485977447059    0.7725657500753441    0.1599558207290932 O
   0.8346344152210381    0.8897564701522211    0.2338251605778751 O
   0.5755148438342614    0.8836764141350747    0.1599560569978238 O
   0.5013006613105935    0.6675338008786184    0.2338253968466056 O
   0.2421816797745581    0.9947879714285879    0.1599558994853368 O
