Li3 Ni3 O6
1.0
2.905345 0.000000 0.000000
-1.452673 2.516103 0.000000
0.000000 0.000000 14.401854
Li Ni O
3 3 6
direct
0.333333 0.666667 0.166667 Li
0.000000 0.000000 0.500000 Li
0.666667 0.333333 0.833333 Li
0.000000 0.000000 0.000000 Ni
0.666667 0.333333 0.333333 Ni
0.333333 0.666667 0.666667 Ni
0.666667 0.333333 0.075577 O
0.000000 0.000000 0.257756 O
0.333333 0.666667 0.408910 O
0.666667 0.333333 0.591090 O
0.000000 0.000000 0.742244 O
0.333333 0.666667 0.924423 O
