Li27 Mn9 Co9 Ni9 O54
1.0
   8.5719923328352259    0.0000000000000000   -0.0000000000000014
  -0.0000000000000010   17.0359479237079547   -2.3401404629351079
   0.0000000000000000    0.0000000000000000   20.4248376998277088
Li O Mn Co Ni
27 54 9 9 9
direct
   0.3333333333333333    0.0000000000000000    0.9501170524459233 Li
   0.3333333333333333    0.3333333333333333    0.9501170524459233 Li
   0.3333333333333333    0.6666666666666666    0.9501170524459233 Li
   0.6666666666666666    0.0000000000000000    0.9501170524459233 Li
   0.6666666666666665    0.3333333333333333    0.9501170524459233 Li
   0.6666666666666666    0.6666666666666666    0.9501170524459233 Li
   0.0000000000000000    0.0000000000000000    0.9501170524459233 Li
   0.0000000000000000    0.3333333333333333    0.9501170524459233 Li
   0.0000000000000000    0.6666666666666666    0.9501170524459233 Li
   0.1666666666666667    0.0666666666666666    0.8501170524459232 Li
   0.1666666666666667    0.3999999999999999    0.8501170524459232 Li
   0.1666666666666667    0.7333333333333332    0.8501170524459232 Li
   0.5000000000000000    0.0666666666666666    0.8501170524459232 Li
   0.5000000000000000    0.3999999999999999    0.8501170524459232 Li
   0.5000000000000000    0.7333333333333332    0.8501170524459232 Li
   0.8333333333333333    0.0666666666666666    0.8501170524459232 Li
   0.8333333333333333    0.3999999999999999    0.8501170524459232 Li
   0.8333333333333334    0.7333333333333332    0.8501170524459232 Li
   0.3333333333333334    0.1333333333333333    0.7501170524459235 Li
   0.3333333333333334    0.4666666666666666    0.7501170524459235 Li
   0.3333333333333334    0.7999999999999999    0.7501170524459235 Li
   0.6666666666666667    0.1333333333333333    0.7501170524459235 Li
   0.6666666666666667    0.4666666666666666    0.7501170524459235 Li
   0.6666666666666666    0.7999999999999999    0.7501170524459235 Li
   0.0000000000000000    0.1333333333333333    0.7501170524459235 Li
   0.0000000000000000    0.4666666666666666    0.7501170524459235 Li
   0.0000000000000000    0.7999999999999999    0.7501170524459235 Li
   0.1666666666666666    0.2433882666666673    0.9465106524459235 O
   0.1666666666666666    0.5767216000000006    0.9465106524459235 O
   0.1666666666666666    0.9100549333333339    0.9465106524459239 O
   0.5000000000000000    0.2433882666666673    0.9465106524459235 O
   0.4999999999999999    0.5767216000000006    0.9465106524459235 O
   0.4999999999999999    0.9100549333333339    0.9465106524459235 O
   0.8333333333333333    0.2433882666666673    0.9465106524459235 O
   0.8333333333333334    0.5767216000000006    0.9465106524459235 O
   0.8333333333333333    0.9100549333333339    0.9465106524459235 O
   0.0000000000000001    0.1566117333333327    0.8537234524459230 O
   0.0000000000000001    0.4899450666666659    0.8537234524459230 O
   0.0000000000000001    0.8232783999999993    0.8537234524459230 O
   0.3333333333333334    0.1566117333333327    0.8537234524459230 O
   0.3333333333333334    0.4899450666666659    0.8537234524459230 O
   0.3333333333333334    0.8232783999999993    0.8537234524459230 O
   0.6666666666666667    0.1566117333333327    0.8537234524459230 O
   0.6666666666666669    0.4899450666666659    0.8537234524459230 O
   0.6666666666666667    0.8232783999999993    0.8537234524459230 O
   0.0000000000000001    0.3100549333333339    0.8465106524459238 O
   0.0000000000000001    0.6433882666666673    0.8465106524459234 O
   0.0000000000000001    0.9767216000000004    0.8465106524459238 O
   0.3333333333333334    0.3100549333333339    0.8465106524459238 O
   0.3333333333333333    0.6433882666666673    0.8465106524459234 O
   0.3333333333333333    0.9767216000000004    0.8465106524459238 O
   0.6666666666666666    0.3100549333333339    0.8465106524459238 O
   0.6666666666666667    0.6433882666666673    0.8465106524459238 O
   0.6666666666666666    0.9767216000000004    0.8465106524459238 O
   0.1666666666666667    0.2232783999999994    0.7537234524459229 O
   0.1666666666666667    0.5566117333333327    0.7537234524459229 O
   0.1666666666666667    0.8899450666666661    0.7537234524459229 O
   0.5000000000000000    0.2232783999999994    0.7537234524459229 O
   0.5000000000000000    0.5566117333333327    0.7537234524459229 O
   0.4999999999999999    0.8899450666666661    0.7537234524459229 O
   0.8333333333333333    0.2232783999999994    0.7537234524459224 O
   0.8333333333333334    0.5566117333333327    0.7537234524459229 O
   0.8333333333333334    0.8899450666666661    0.7537234524459229 O
   0.1666666666666666    0.0433882666666673    0.7465106524459237 O
   0.1666666666666666    0.3767216000000006    0.7465106524459237 O
   0.1666666666666666    0.7100549333333339    0.7465106524459237 O
   0.4999999999999999    0.0433882666666673    0.7465106524459237 O
   0.5000000000000000    0.3767216000000006    0.7465106524459237 O
   0.4999999999999999    0.7100549333333339    0.7465106524459237 O
   0.8333333333333333    0.0433882666666673    0.7465106524459237 O
   0.8333333333333333    0.3767216000000006    0.7465106524459237 O
   0.8333333333333334    0.7100549333333339    0.7465106524459237 O
   0.3333333333333334    0.2899450666666660    0.6537234524459228 O
   0.3333333333333333    0.6232783999999993    0.6537234524459228 O
   0.3333333333333333    0.9566117333333325    0.6537234524459228 O
   0.6666666666666666    0.2899450666666660    0.6537234524459228 O
   0.6666666666666666    0.6232783999999993    0.6537234524459228 O
   0.6666666666666666    0.9566117333333325    0.6537234524459228 O
   0.0000000000000000    0.2899450666666660    0.6537234524459228 O
   0.0000000000000000    0.6232783999999993    0.6537234524459228 O
   0.0000000000000000    0.9566117333333325    0.6537234524459228 O
   0.3333333333333333    0.4999999999999999    0.9501170524459233 Mn
   0.3333333333333333    0.8333333333333333    0.9501170524459233 Mn
   0.1666666666666667    0.8999999999999999    0.8501170524459236 Mn
   0.5000000000000000    0.5666666666666665    0.8501170524459232 Mn
   0.4999999999999999    0.8999999999999999    0.8501170524459232 Mn
   0.8333333333333334    0.8999999999999999    0.8501170524459232 Mn
   0.3333333333333333    0.2999999999999999    0.7501170524459235 Mn
   0.6666666666666666    0.6333333333333332    0.7501170524459235 Mn
   0.0000000000000000    0.2999999999999999    0.7501170524459235 Mn
   0.3333333333333332    0.1666666666666667    0.9501170524459233 Co
   0.6666666666666665    0.1666666666666667    0.9501170524459233 Co
   0.6666666666666666    0.4999999999999999    0.9501170524459233 Co
   0.0000000000000000    0.4999999999999999    0.9501170524459233 Co
   0.0000000000000000    0.8333333333333333    0.9501170524459233 Co
   0.3333333333333333    0.9666666666666665    0.7501170524459235 Co
   0.6666666666666665    0.2999999999999999    0.7501170524459235 Co
   0.6666666666666666    0.9666666666666665    0.7501170524459235 Co
   0.0000000000000000    0.6333333333333332    0.7501170524459235 Co
   0.6666666666666665    0.8333333333333333    0.9501170524459233 Ni
   0.9999999999999999    0.1666666666666667    0.9501170524459233 Ni
   0.1666666666666667    0.2333333333333333    0.8501170524459232 Ni
   0.1666666666666667    0.5666666666666665    0.8501170524459232 Ni
   0.5000000000000000    0.2333333333333333    0.8501170524459232 Ni
   0.8333333333333333    0.2333333333333333    0.8501170524459232 Ni
   0.8333333333333334    0.5666666666666665    0.8501170524459232 Ni
   0.3333333333333333    0.6333333333333332    0.7501170524459235 Ni
   0.0000000000000000    0.9666666666666665    0.7501170524459235 Ni
