Li27 Ni27 H13 C4 N3 O54
1.0
   8.7160368496149996    0.0000000000000000    0.0000000000000000
  -0.0000004661530000   17.5700240339309985    0.0000000000000000
   0.0000000000000000    0.0000000000000000   26.1872209671350014
Li Ni O C H C H C H N H N H N H C H
27 27 54 1 3 1 2 1 2 1 1 1 1 1 1 1 3
direct
  -0.0000003513000000    0.8307258676820000    0.0787560798000000 Li
  -0.0000001846340000    0.4973927856520000    0.0787561585570000 Li
  -0.0000000179670000    0.1640597036220000    0.0787562373130000 Li
   0.1666663243500000    0.7486960158710000    0.1575123171130000 Li
   0.1666664910170000    0.4153629338410000    0.1575123958690000 Li
   0.1666666576830000    0.0820298518110000    0.1575124746250000 Li
  -0.0000003333330000    0.6666661640600000    0.2362685544260000 Li
  -0.0000001666670000    0.3333330820300000    0.2362686331820000 Li
   0.0000000000000000    0.0000000000000000    0.2362687119380000 Li
   0.3333329820330000    0.8307258676820000    0.0787560798000000 Li
   0.3333331487000000    0.4973927856520000    0.0787561585570000 Li
   0.3333333153660000    0.1640597036220000    0.0787562373130000 Li
   0.4999996576830000    0.7486960158710000    0.1575123171130000 Li
   0.4999998243500000    0.4153629338410000    0.1575123958690000 Li
   0.4999999910170000    0.0820298518110000    0.1575124746250000 Li
   0.3333330000000000    0.6666661640600000    0.2362685544260000 Li
   0.3333331666670000    0.3333330820300000    0.2362686331820000 Li
   0.3333333333330000    0.0000000000000000    0.2362687119380000 Li
   0.6666663153660000    0.8307258676820000    0.0787560798000000 Li
   0.6666664820330001    0.4973927856520000    0.0787561585570000 Li
   0.6666666487000000    0.1640597036220000    0.0787562373130000 Li
   0.8333329910170000    0.7486960158710000    0.1575123171130000 Li
   0.8333331576830000    0.4153629338410000    0.1575123958690000 Li
   0.8333333243500000    0.0820298518110000    0.1575124746250000 Li
   0.6666663333330000    0.6666661640600000    0.2362685544260000 Li
   0.6666665000000001    0.3333330820300000    0.2362686331820000 Li
   0.6666666666670000    0.0000000000000000    0.2362687119380000 Li
  -0.0000003513000000    0.3307258676820000    0.0787560798000000 Ni
  -0.0000001846340000    0.9973927856520000    0.0787561585570000 Ni
  -0.0000000179670000    0.6640597036220000    0.0787562373130000 Ni
   0.1666663243500000    0.2486960158710000    0.1575123171130000 Ni
   0.1666664910170000    0.9153629338410000    0.1575123958690000 Ni
   0.1666666576830000    0.5820298518110000    0.1575124746250000 Ni
  -0.0000003333330000    0.1666661640600000    0.2362685544260000 Ni
  -0.0000001666670000    0.8333330820300000    0.2362686331820000 Ni
   0.0000000000000000    0.5000000000000000    0.2362687119380000 Ni
   0.3333329820330000    0.3307258676820000    0.0787560798000000 Ni
   0.3333331487000000    0.9973927856520000    0.0787561585570000 Ni
   0.3333333153660000    0.6640597036220000    0.0787562373130000 Ni
   0.4999996576830000    0.2486960158710000    0.1575123171130000 Ni
   0.4999998243500000    0.9153629338410000    0.1575123958690000 Ni
   0.4999999910170000    0.5820298518110000    0.1575124746250000 Ni
   0.3333330000000000    0.1666661640600000    0.2362685544260000 Ni
   0.3333331666670000    0.8333330820300000    0.2362686331820000 Ni
   0.3333333333330000    0.5000000000000000    0.2362687119380000 Ni
   0.6666663153660000    0.3307258676820000    0.0787560798000000 Ni
   0.6666664820330001    0.9973927856520000    0.0787561585570000 Ni
   0.6666666487000000    0.6640597036220000    0.0787562373130000 Ni
   0.8333329910170000    0.2486960158710000    0.1575123171130000 Ni
   0.8333331576830000    0.9153629338410000    0.1575123958690000 Ni
   0.8333333243500000    0.5820298518110000    0.1575124746250000 Ni
   0.6666663333330000    0.1666661640600000    0.2362685544260000 Ni
   0.6666665000000001    0.8333330820300000    0.2362686331820000 Ni
   0.6666666666670000    0.5000000000000000    0.2362687119380000 Ni
  -0.0000001933380000    0.3346337433400000    0.0024432547500000 O
  -0.0000000266720000    0.0013006613110000    0.0024433335070000 O
  -0.0000003600050000    0.6679674972510000    0.0024434910190000 O
   0.1666666484210000    0.4088479258640000    0.0763125887810000 O
   0.1666663150880000    0.0755147618040000    0.0763127462940000 O
   0.1666664817540000    0.7421816797750000    0.0763128250500000 O
   0.1666664823120000    0.2526038915290000    0.0811994920630000 O
   0.1666666489790000    0.9192708095000000    0.0811995708190000 O
   0.1666663156450000    0.5859376454400000    0.0811997283320000 O
  -0.0000000092620000    0.3268180740530000    0.1550688260940000 O
  -0.0000003425950000    0.9934849099930000    0.1550689836070000 O
  -0.0000001759290000    0.6601518279630000    0.1550690623630000 O
  -0.0000001753710000    0.1705740397180000    0.1599557293760000 O
  -0.0000000087050000    0.8372409576880000    0.1599558081320000 O
  -0.0000003420380000    0.5039077936290000    0.1599559656440000 O
   0.1666666663880000    0.2447882222420000    0.2338250634070000 O
   0.1666663330550000    0.9114550581820000    0.2338252209190000 O
   0.1666664997210000    0.5781219761520000    0.2338252996750000 O
   0.3333331399950000    0.3346337433400000    0.0024432547500000 O
   0.3333333066620000    0.0013006613110000    0.0024433335070000 O
   0.3333329733280000    0.6679674972510000    0.0024434910190000 O
   0.4999999817540000    0.4088479258640000    0.0763125887810000 O
   0.4999996484210000    0.0755147618040000    0.0763127462940000 O
   0.4999998150880000    0.7421816797750000    0.0763128250500000 O
   0.4999998156450000    0.2526038915290000    0.0811994920630000 O
   0.4999999823120000    0.9192708095000000    0.0811995708190000 O
   0.4999996489790000    0.5859376454400000    0.0811997283320000 O
   0.3333333240710000    0.3268180740530000    0.1550688260940000 O
   0.3333329907380000    0.9934849099930000    0.1550689836070000 O
   0.3333331574050000    0.6601518279630000    0.1550690623630000 O
   0.3333331579620000    0.1705740397180000    0.1599557293760000 O
   0.3333333246290000    0.8372409576880000    0.1599558081320000 O
   0.3333329912950000    0.5039077936290000    0.1599559656440000 O
   0.4999999997210000    0.2447882222420000    0.2338250634070000 O
   0.4999996663880000    0.9114550581820000    0.2338252209190000 O
   0.4999998330550000    0.5781219761520000    0.2338252996750000 O
   0.6666664733280000    0.3346337433400000    0.0024432547500000 O
   0.6666666399950000    0.0013006613110000    0.0024433335070000 O
   0.6666663066620000    0.6679674972510000    0.0024434910190000 O
   0.8333333150880000    0.4088479258640000    0.0763125887810000 O
   0.8333329817539999    0.0755147618040000    0.0763127462940000 O
   0.8333331484210000    0.7421816797750000    0.0763128250500000 O
   0.8333331489790000    0.2526038915290000    0.0811994920630000 O
   0.8333333156450000    0.9192708095000000    0.0811995708190000 O
   0.8333329823120000    0.5859376454400000    0.0811997283320000 O
   0.6666666574050000    0.3268180740530000    0.1550688260940000 O
   0.6666663240710000    0.9934849099930000    0.1550689836070000 O
   0.6666664907380000    0.6601518279630000    0.1550690623630000 O
   0.6666664912950000    0.1705740397180000    0.1599557293760000 O
   0.6666666579620000    0.8372409576880000    0.1599558081320000 O
   0.6666663246290000    0.5039077936290000    0.1599559656440000 O
   0.8333333330550000    0.2447882222420000    0.2338250634070000 O
   0.8333329997209999    0.9114550581820000    0.2338252209190000 O
   0.8333331663880000    0.5781219761520000    0.2338252996750000 O
   0.5033090272014025    1.9641534470026369    0.1376350815154413 C
   0.6110455321086571    1.9803591807573697    0.1561168308931941 H
   0.5217875797615994    1.9648581537348055    0.0962403444630635 H
   0.4161489832722685    2.0079490152994488    0.1466215611369753 H
   0.3182077455522802    1.8579091985363938    0.1305757268727427 C
   0.2154703852354981    1.8910691557806079    0.1415562452239759 H
   0.3315560172964406    1.8636181499510489    0.0887260715908473 H
   0.4019484808295795    1.7234553814755278    0.1269604144943662 C
   0.5171147597152175    1.7482858014624540    0.1314826549227588 H
   0.3845245626467125    1.7116842752039254    0.0858471683274740 H
   0.4617175164596812    1.8862512388428068    0.1533833002346198 N
   0.4568240441835068    1.8799474928030466    0.1922508169919688 H
   0.2940479586873796    1.7795942195060794    0.1480385562579116 N
   0.1830475624864826    1.7614906741497691    0.1444564464072634 H
   0.3771282332573236    1.6513154937449512    0.1543377088845677 N
   0.3885778887406115    1.6605018048145557    0.1928134854555243 H
   0.4750758830241912    1.5883548195814323    0.1361871045189825 C
   0.5998189081046157    1.5994791520534275    0.1384765598552329 H
   0.4497385104662853    1.5371515776456488    0.1584358455389965 H
   0.4472257336152183    1.5765031200563202    0.0961516804228100 H
