Li6 Ni6 O12
1.0
  18.5059415254051842    0.0000000000000000    0.0000000000000000
  -0.9122510695045748    2.7584109805693857    0.0000000000000000
   0.0000000000000000   -0.0000000000000000   24.1248119156830931
Li Ni O
6 6 12
direct
   0.8333330820298519    0.6666666640597307    0.4145110891374938 Li
   0.5000000000000000    0.0000000000000001    0.4145110036484548 Li
   0.2486967697812081    0.9973930665126469    0.4999999572554805 Li
   0.9153629338409119    0.3307263946321083    0.5000001282335585 Li
   0.5820298518110599    0.6640597305723777    0.5000000427445195 Li
   0.3307266215922681    0.6614527970850246    0.5854889963515452 Li
   0.0000000000000000    0.0000000000000000    0.4145110036484548 Ni
   0.7486967697812081    0.9973930665126469    0.4999999572554805 Ni
   0.3333330820298518    0.6666666640597306    0.4145110891374939 Ni
   0.0820298518110599    0.6640597305723775    0.5000000427445195 Ni
   0.8307266215922682    0.6614527970850244    0.5854889963515452 Ni
   0.4153629338409117    0.3307263946321083    0.5000001282335585 Ni
   0.0039078756586219    0.0078152774313695    0.4973477453065641 O
   0.7447888941225862    0.9895777890812774    0.4171632155973711 O
   0.6705747115989181    0.3411499493119086    0.4973475743284859 O
   0.4114551402121417    0.3229097812604692    0.4171634720644884 O
   0.3372409576884737    0.6744819414911001    0.4973478307956032 O
   0.0781219761524382    0.6562444531410081    0.4171633010864102 O
   0.0859377274696820    0.6718750080037469    0.5828367844026289 O
   0.8268187459336461    0.6536375196536550    0.5026522546934359 O
   0.7526045634099781    0.0052096798842861    0.5828366134245507 O
   0.4934849920232017    0.9869695118328469    0.5026525111605531 O
   0.4192708094995335    0.3385416720634777    0.5828368698916679 O
   0.1601518279634982    0.3203041837133858    0.5026523401824750 O
