Li9 Ni9 O18
1.0
  18.5059415254051842    0.0000000000000000    0.0000000000000000
  -0.9122510695045748    2.7584109805693857    0.0000000000000000
   0.0000000000000000   -0.0000000000000000   26.1872189047281339
Li Ni O
9 9 18
direct
   0.8333330820298520    0.6666666640597306    0.3818657528616556 Li
   0.5000000000000000    0.0000000000000000    0.3818656741054121 Li
   0.2486967697812081    0.9973930665126469    0.4606218388643084 Li
   0.9153629338409119    0.3307263946321081    0.4606219963767954 Li
   0.5820298518110599    0.6640597305723777    0.4606219176205519 Li
   0.3307266215922681    0.6614527970850246    0.5393780823794482 Li
   0.9973927856519716    0.9947861252044858    0.5393782398919351 Li
   0.6640597036221197    0.3281194611447552    0.5393781611356916 Li
   0.4127564734033280    0.3255125276574022    0.6181343258945879 Li
   0.0000000000000000    0.0000000000000000    0.3818656741054121 Ni
   0.7486967697812081    0.9973930665126469    0.4606218388643084 Ni
   0.3333330820298519    0.6666666640597306    0.3818657528616556 Ni
   0.0820298518110599    0.6640597305723777    0.4606219176205519 Ni
   0.8307266215922682    0.6614527970850246    0.5393780823794482 Ni
   0.4153629338409117    0.3307263946321083    0.4606219963767954 Ni
   0.1640597036221199    0.3281194611447552    0.5393781611356916 Ni
   0.9127564734033281    0.3255125276574019    0.6181343258945879 Ni
   0.4973927856519717    0.9947861252044856    0.5393782398919352 Ni
   0.0039078756586217    0.0078152774313696    0.4581785051654946 O
   0.7447888941225862    0.9895777890812774    0.3843090078042258 O
   0.6705747115989182    0.3411499493119085    0.4581783476530076 O
   0.4114551402121417    0.3229097812604692    0.3843092440729564 O
   0.3372409576884737    0.6744819414911002    0.4581785839217382 O
   0.0781219761524383    0.6562444531410081    0.3843090865604693 O
   0.0859377274696818    0.6718750080037470    0.5369347486806345 O
   0.8268187459336461    0.6536375196536549    0.4630652513193656 O
   0.7526045634099783    0.0052096798842860    0.5369345911681475 O
   0.4934849920232017    0.9869695118328466    0.4630654875880961 O
   0.4192708094995335    0.3385416720634777    0.5369348274368779 O
   0.1601518279634982    0.3203041837133858    0.4630653300756091 O
   0.1679675792807416    0.3359347385761245    0.6156909921957744 O
   0.9088485977447061    0.3176972502260326    0.5418214948345053 O
   0.8346344152210381    0.6692694104566637    0.6156908346832872 O
   0.5755148438342615    0.6510292424052243    0.5418217311032359 O
   0.5013006613105934    0.0026014026358554    0.6156910709520177 O
   0.2421816797745581    0.9843639142857635    0.5418215735907489 O
