Li27 Ni27 O54
1.0
   8.7160368496147385    0.0000000000000000    0.0000000000000005
   0.0000000000000030   18.5059415254051842    0.0000000000000011
   0.0000000000000000    0.0000000000000000   26.9872189047281346
Li Ni O
27 27 54
direct
   0.8333330820298520    0.2222222213532435    0.2292647072736032 Li
   0.5000000000000000    0.0000000000000000    0.2292647836952232 Li
   0.2486967697812082    0.3324643555042156    0.1528432400778955 Li
   0.9153629338409119    0.1102421315440360    0.1528430872346555 Li
   0.5820298518110600    0.2213532435241258    0.1528431636562755 Li
   0.3307266215922681    0.2204842656950082    0.0764216200389478 Li
   0.9973927856519718    0.3315953750681619    0.0764214671957077 Li
   0.6640597036221199    0.1093731537149184    0.0764215436173277 Li
   0.4127564734033279    0.1085041758858007    0.0000000000000000 Li
   0.8333330820298520    0.5555555546865768    0.2292647072736032 Li
   0.5000000000000001    0.3333333333333333    0.2292647836952232 Li
   0.2486967697812081    0.6657976888375490    0.1528432400778955 Li
   0.9153629338409121    0.4435754648773694    0.1528430872346555 Li
   0.5820298518110600    0.5546865768574591    0.1528431636562755 Li
   0.3307266215922681    0.5538175990283415    0.0764216200389478 Li
   0.9973927856519718    0.6649287084014953    0.0764214671957077 Li
   0.6640597036221199    0.4427064870482518    0.0764215436173277 Li
   0.4127564734033280    0.4418375092191341    0.0000000000000000 Li
   0.8333330820298520    0.8888888880199103    0.2292647072736032 Li
   0.5000000000000000    0.6666666666666666    0.2292647836952232 Li
   0.2486967697812081    0.9991310221708823    0.1528432400778955 Li
   0.9153629338409119    0.7769087982107027    0.1528430872346555 Li
   0.5820298518110599    0.8880199101907926    0.1528431636562755 Li
   0.3307266215922681    0.8871509323616750    0.0764216200389478 Li
   0.9973927856519718    0.9982620417348286    0.0764214671957077 Li
   0.6640597036221199    0.7760398203815850    0.0764215436173277 Li
   0.4127564734033280    0.7751708425524674    0.0000000000000000 Li
   0.0000000000000000    0.0000000000000000    0.2292647836952232 Ni
   0.7486967697812082    0.3324643555042156    0.1528432400778955 Ni
   0.3333330820298520    0.2222222213532435    0.2292647072736032 Ni
   0.0820298518110599    0.2213532435241258    0.1528431636562755 Ni
   0.8307266215922682    0.2204842656950082    0.0764216200389478 Ni
   0.4153629338409118    0.1102421315440361    0.1528430872346555 Ni
   0.1640597036221199    0.1093731537149184    0.0764215436173277 Ni
   0.9127564734033282    0.1085041758858006    0.0000000000000000 Ni
   0.4973927856519718    0.3315953750681619    0.0764214671957077 Ni
  -0.0000000000000000    0.3333333333333333    0.2292647836952232 Ni
   0.7486967697812082    0.6657976888375490    0.1528432400778955 Ni
   0.3333330820298519    0.5555555546865769    0.2292647072736032 Ni
   0.0820298518110599    0.5546865768574593    0.1528431636562755 Ni
   0.8307266215922682    0.5538175990283414    0.0764216200389478 Ni
   0.4153629338409118    0.4435754648773694    0.1528430872346555 Ni
   0.1640597036221199    0.4427064870482517    0.0764215436173277 Ni
   0.9127564734033282    0.4418375092191339    0.0000000000000000 Ni
   0.4973927856519718    0.6649287084014952    0.0764214671957077 Ni
  -0.0000000000000000    0.6666666666666666    0.2292647836952232 Ni
   0.7486967697812081    0.9991310221708823    0.1528432400778955 Ni
   0.3333330820298519    0.8888888880199103    0.2292647072736032 Ni
   0.0820298518110599    0.8880199101907926    0.1528431636562755 Ni
   0.8307266215922681    0.8871509323616750    0.0764216200389478 Ni
   0.4153629338409118    0.7769087982107028    0.1528430872346555 Ni
   0.1640597036221199    0.7760398203815851    0.0764215436173277 Ni
   0.9127564734033282    0.7751708425524673    0.0000000000000000 Ni
   0.4973927856519718    0.9982620417348288    0.0764214671957077 Ni
   0.0039078756586217    0.0026050924771232    0.1552141444179838 O
   0.7447888941225863    0.3298592630270925    0.2268938793551349 O
   0.6705747115989183    0.1137166497706362    0.1552142972612239 O
   0.4114551402121419    0.1076365937534897    0.2268936500902748 O
   0.3372409576884737    0.2248273138303667    0.1552140679963638 O
   0.0781219761524383    0.2187481510470027    0.2268938029335149 O
   0.0859377274696818    0.2239583360012490    0.0787925243790361 O
   0.8268187459336462    0.2178791732178850    0.1504722593161872 O
   0.7526045634099783    0.0017365599614287    0.0787926772222762 O
   0.4934849920232018    0.3289898372776155    0.1504720300513271 O
   0.4192708094995335    0.1128472240211592    0.0787924479574161 O
   0.1601518279634982    0.1067680612377953    0.1504721828945671 O
   0.1679675792807416    0.1119782461920415    0.0023709043400883 O
   0.9088485977447062    0.1058990834086776    0.0740506392772395 O
   0.8346344152210381    0.2230898034855546    0.0023710571833285 O
   0.5755148438342615    0.2170097474684081    0.0740504100123793 O
   0.5013006613105936    0.0008671342119518    0.0023708279184683 O
   0.2421816797745582    0.3281213047619212    0.0740505628556195 O
   0.0039078756586217    0.3359384258104565    0.1552141444179838 O
   0.7447888941225863    0.6631925963604257    0.2268938793551349 O
   0.6705747115989183    0.4470499831039695    0.1552142972612239 O
   0.4114551402121418    0.4409699270868230    0.2268936500902748 O
   0.3372409576884736    0.5581606471637001    0.1552140679963638 O
   0.0781219761524383    0.5520814843803361    0.2268938029335149 O
   0.0859377274696818    0.5572916693345824    0.0787925243790361 O
   0.8268187459336463    0.5512125065512182    0.1504722593161872 O
   0.7526045634099784    0.3350698932947620    0.0787926772222762 O
   0.4934849920232018    0.6623231706109489    0.1504720300513271 O
   0.4192708094995335    0.4461805573544925    0.0787924479574161 O
   0.1601518279634982    0.4401013945711286    0.1504721828945671 O
   0.1679675792807416    0.4453115795253749    0.0023709043400883 O
   0.9088485977447062    0.4392324167420109    0.0740506392772395 O
   0.8346344152210382    0.5564231368188879    0.0023710571833285 O
   0.5755148438342617    0.5503430808017414    0.0740504100123793 O
   0.5013006613105936    0.3342004675452851    0.0023708279184683 O
   0.2421816797745581    0.6614546380952545    0.0740505628556195 O
   0.0039078756586217    0.6692717591437899    0.1552141444179838 O
   0.7447888941225863    0.9965259296937592    0.2268938793551349 O
   0.6705747115989185    0.7803833164373029    0.1552142972612239 O
   0.4114551402121419    0.7743032604201564    0.2268936500902748 O
   0.3372409576884737    0.8914939804970334    0.1552140679963638 O
   0.0781219761524383    0.8854148177136694    0.2268938029335149 O
   0.0859377274696817    0.8906250026679156    0.0787925243790361 O
   0.8268187459336462    0.8845458398845516    0.1504722593161872 O
   0.7526045634099783    0.6684032266280953    0.0787926772222762 O
   0.4934849920232017    0.9956565039442823    0.1504720300513271 O
   0.4192708094995335    0.7795138906878261    0.0787924479574161 O
   0.1601518279634981    0.7734347279044619    0.1504721828945671 O
   0.1679675792807416    0.7786449128587082    0.0023709043400883 O
   0.9088485977447061    0.7725657500753441    0.0740506392772395 O
   0.8346344152210382    0.8897564701522211    0.0023710571833285 O
   0.5755148438342615    0.8836764141350747    0.0740504100123793 O
   0.5013006613105935    0.6675338008786185    0.0023708279184683 O
   0.2421816797745581    0.9947879714285880    0.0740505628556195 O
