Li3 Ni3 O6
1.0
   1.4286653888058711   -2.4745210404269131    0.0000000000000000
   1.4286653888058711    2.4745210404269131    0.0000000000000000
   0.0000000000000000    0.0000000000000000   14.0615685104225765
Li Ni O
3 3 6
direct
   0.0000000000000000    0.0000000000000000    0.0000000000000000 Li+
   0.6666666666666661    0.3333333333333330    0.3333333333333330 Li+
   0.3333333333333330    0.6666666666666661    0.6666666666666661 Li+
   0.3333333333333330    0.6666666666666661    0.1666666666666660 Ni3+
   0.9999999999999991    0.9999999999999991    0.5000000000000000 Ni3+
   0.6666666666666661    0.3333333333333330    0.8333333333333330 Ni3+
   0.6666666666666661    0.3333333333333330    0.0923493333333320 O2-
   0.0000000000000000    0.0000000000000000    0.2409840000000000 O2-
   0.3333333333333330    0.6666666666666661    0.4256826666666650 O2-
   0.6666666666666661    0.3333333333333330    0.5743173333333340 O2-
   0.0000000000000000    0.0000000000000000    0.7590159999999990 O2-
   0.3333333333333330    0.6666666666666661    0.9076506666666670 O2-
